0.250000 0.500000 1.000000
5
2 2 3 
2 4 5 
2 6 7 
2 8 9 
2 10 11 
1 1 
1 2 
1 2 
1 2 
1 2 
1 2 
1 2 
1 2 
1 2 
1 2 
1 2 
1 2 
1 2 
1 3 
1 3 
1 3 
1 3 
1 3 
1 3 
1 3 
1 3 
1 3 
1 3 
1 3 
1 3 
1 1 
1 4 
1 4 
1 4 
1 4 
1 4 
1 4 
1 4 
1 4 
1 4 
1 4 
1 4 
1 4 
1 5 
1 5 
1 5 
1 5 
1 5 
1 5 
1 5 
2 5 3 
1 5 
1 5 
1 5 
2 5 3 
1 1 
1 6 
1 6 
1 6 
1 6 
1 6 
1 6 
1 6 
1 6 
1 6 
1 6 
1 6 
1 6 
1 6 
2 6 4 
2 6 4 
1 6 
2 6 4 
1 6 
1 6 
1 6 
1 6 
1 6 
1 6 
1 6 
1 6 
1 6 
1 6 
1 6 
1 6 
1 6 
1 6 
2 6 4 
1 7 
2 7 2 
2 7 2 
1 7 
2 7 2 
2 7 2 
2 7 2 
2 7 2 
2 7 2 
1 7 
1 7 
2 7 2 
1 8 
1 8 
1 8 
1 8 
1 8 
1 8 
1 8 
1 8 
1 8 
1 8 
1 8 
1 8 
1 8 
1 8 
1 8 
1 8 
1 8 
1 8 
1 8 
1 8 
1 8 
1 8 
1 9 
1 9 
2 9 5 
2 9 8 
1 9 
2 9 8 
2 9 5 
3 9 5 8 
3 9 5 8 
3 9 5 8 
1 9 
3 9 5 8 
1 10 
1 10 
4 10 9 5 8 
5 10 6 9 5 8 
1 10 
4 10 9 5 8 
5 10 6 9 5 8 
5 10 6 9 5 8 
5 10 6 9 5 8 
1 10 
1 10 
5 10 6 9 5 8 
1 11 
1 11 
1 11 
1 11 
1 11 
1 11 
5 11 10 9 5 8 
1 11 
5 11 10 9 5 8 
3 11 7 2 
1 11 
7 11 7 2 10 9 5 8 
1 1 
